language Essence 1.3

letting blksize_delta be
        function(1 --> 2, 2 --> 2, 3 --> 1, 4 --> 1, 5 --> 1, 6 --> 1, 7 --> 1, 8 --> 1, 9 --> 1, 10 --> 2, 11 --> 2,
                 12 --> 2, 13 --> 1, 14 --> 2, 15 --> 1, 16 --> 1, 17 --> 1, 18 --> 2, 19 --> 1, 20 --> 1, 21 --> 2,
                 22 --> 1, 23 --> 1, 24 --> 2, 25 --> 2, 26 --> 2, 27 --> 1, 28 --> 2, 29 --> 2, 30 --> 2, 31 --> 2,
                 32 --> 1, 33 --> 2, 34 --> 1, 35 --> 2, 36 --> 2, 37 --> 1, 38 --> 1, 39 --> 2, 40 --> 1, 41 --> 2,
                 42 --> 1, 43 --> 2, 44 --> 1, 45 --> 2, 46 --> 2, 47 --> 1, 48 --> 2, 49 --> 2, 50 --> 2, 51 --> 2,
                 52 --> 1, 53 --> 1, 54 --> 2, 55 --> 1, 56 --> 2, 57 --> 2, 58 --> 2, 59 --> 1, 60 --> 1, 61 --> 2,
                 62 --> 2, 63 --> 1, 64 --> 2, 65 --> 1, 66 --> 2, 67 --> 2, 68 --> 1, 69 --> 2, 70 --> 1)
letting maxcars be
        function(1 --> 8, 2 --> 8, 3 --> 6, 4 --> 5, 5 --> 5, 6 --> 6, 7 --> 7, 8 --> 6, 9 --> 4, 10 --> 7, 11 --> 6,
                 12 --> 8, 13 --> 8, 14 --> 5, 15 --> 5, 16 --> 3, 17 --> 7, 18 --> 6, 19 --> 3, 20 --> 7, 21 --> 5,
                 22 --> 7, 23 --> 3, 24 --> 8, 25 --> 3, 26 --> 3, 27 --> 3, 28 --> 4, 29 --> 8, 30 --> 3, 31 --> 5,
                 32 --> 7, 33 --> 5, 34 --> 4, 35 --> 7, 36 --> 6, 37 --> 8, 38 --> 3, 39 --> 6, 40 --> 6, 41 --> 6,
                 42 --> 4, 43 --> 3, 44 --> 7, 45 --> 7, 46 --> 5, 47 --> 7, 48 --> 6, 49 --> 5, 50 --> 8, 51 --> 5,
                 52 --> 3, 53 --> 6, 54 --> 7, 55 --> 3, 56 --> 8, 57 --> 8, 58 --> 8, 59 --> 5, 60 --> 3, 61 --> 5,
                 62 --> 7, 63 --> 7, 64 --> 5, 65 --> 3, 66 --> 6, 67 --> 8, 68 --> 6, 69 --> 3, 70 --> 8)
letting n_cars be 70
letting n_classes be 3
letting n_options be 70
letting quantity be function(1 --> 24, 2 --> 23, 3 --> 23)
letting usage be
        relation((1, 2), (1, 6), (1, 13), (1, 14), (1, 16), (1, 18), (1, 21), (1, 23), (1, 25), (1, 26), (1, 27),
                 (1, 28), (1, 29), (1, 31), (1, 35), (1, 37), (1, 38), (1, 39), (1, 44), (1, 45), (1, 46), (1, 47),
                 (1, 51), (1, 53), (1, 55), (1, 56), (1, 58), (1, 61), (1, 62), (1, 63), (1, 68), (1, 69), (1, 70),
                 (2, 3), (2, 6), (2, 7), (2, 8), (2, 10), (2, 11), (2, 13), (2, 17), (2, 19), (2, 21), (2, 23), (2, 24),
                 (2, 26), (2, 27), (2, 28), (2, 39), (2, 44), (2, 45), (2, 50), (2, 51), (2, 53), (2, 55), (2, 56),
                 (2, 57), (2, 60), (2, 61), (2, 62), (2, 64), (2, 65), (2, 67), (3, 1), (3, 3), (3, 4), (3, 5), (3, 6),
                 (3, 7), (3, 9), (3, 12), (3, 13), (3, 14), (3, 15), (3, 16), (3, 17), (3, 19), (3, 20), (3, 22),
                 (3, 23), (3, 24), (3, 26), (3, 30), (3, 31), (3, 32), (3, 33), (3, 34), (3, 35), (3, 36), (3, 37),
                 (3, 38), (3, 39), (3, 40), (3, 41), (3, 42), (3, 43), (3, 45), (3, 46), (3, 47), (3, 48), (3, 49),
                 (3, 52), (3, 54), (3, 55), (3, 59), (3, 61), (3, 66), (3, 69), (3, 70))
$ Visualisation for usage
$  1  2
$  1  6
$  1 13
$  1 14
$  1 16
$  1 18
$  1 21
$  1 23
$  1 25
$  1 26
$  1 27
$  1 28
$  1 29
$  1 31
$  1 35
$  1 37
$  1 38
$  1 39
$  1 44
$  1 45
$  1 46
$  1 47
$  1 51
$  1 53
$  1 55
$  1 56
$  1 58
$  1 61
$  1 62
$  1 63
$  1 68
$  1 69
$  1 70
$  2  3
$  2  6
$  2  7
$  2  8
$  2 10
$  2 11
$  2 13
$  2 17
$  2 19
$  2 21
$  2 23
$  2 24
$  2 26
$  2 27
$  2 28
$  2 39
$  2 44
$  2 45
$  2 50
$  2 51
$  2 53
$  2 55
$  2 56
$  2 57
$  2 60
$  2 61
$  2 62
$  2 64
$  2 65
$  2 67
$  3  1
$  3  3
$  3  4
$  3  5
$  3  6
$  3  7
$  3  9
$  3 12
$  3 13
$  3 14
$  3 15
$  3 16
$  3 17
$  3 19
$  3 20
$  3 22
$  3 23
$  3 24
$  3 26
$  3 30
$  3 31
$  3 32
$  3 33
$  3 34
$  3 35
$  3 36
$  3 37
$  3 38
$  3 39
$  3 40
$  3 41
$  3 42
$  3 43
$  3 45
$  3 46
$  3 47
$  3 48
$  3 49
$  3 52
$  3 54
$  3 55
$  3 59
$  3 61
$  3 66
$  3 69
$  3 70

